Academic license - for non-commercial use only - expires 2022-11-10
Using license file /home/benedond/Apps/gurobi/gurobi950/gurobi.lic
Using gurobi.env file
Set parameter Threads to value 1
Changed value of parameter TimeLimit to 300.0
   Prev: inf  Min: 0.0  Max: inf  Default: inf
Gurobi Optimizer version 9.1.2 build v9.1.2rc0 (linux64)
Thread count: 2 physical cores, 4 logical processors, using up to 1 threads
Optimize a model with 880 rows, 820 columns and 3258 nonzeros
Model fingerprint: 0x4efb91a0
Variable types: 20 continuous, 800 integer (800 binary)
Coefficient statistics:
  Matrix range     [1e+00, 2e+02]
  Objective range  [4e+01, 2e+02]
  Bounds range     [1e+00, 1e+00]
  RHS range        [1e+00, 7e+02]
Presolve removed 714 rows and 602 columns
Presolve time: 0.12s
Presolved: 166 rows, 218 columns, 994 nonzeros
Variable types: 10 continuous, 208 integer (208 binary)
Found heuristic solution: objective 1555.0000000

Root relaxation: objective 1.366000e+03, 397 iterations, 0.01 seconds

    Nodes    |    Current Node    |     Objective Bounds      |     Work
 Expl Unexpl |  Obj  Depth IntInf | Incumbent    BestBd   Gap | It/Node Time

     0     0 1366.00000    0   23 1555.00000 1366.00000  12.2%     -    0s
H    0     0                    1540.0000000 1366.00000  11.3%     -    0s
H    0     0                    1503.0000000 1366.00000  9.12%     -    0s
     0     0 1366.00000    0   34 1503.00000 1366.00000  9.12%     -    0s
H    0     0                    1435.0000000 1366.00000  4.81%     -    0s
     0     0 1366.00000    0   23 1435.00000 1366.00000  4.81%     -    0s
     0     0 1366.00000    0   24 1435.00000 1366.00000  4.81%     -    0s
     0     0 1366.00000    0   26 1435.00000 1366.00000  4.81%     -    0s
     0     0 1366.00000    0   35 1435.00000 1366.00000  4.81%     -    0s
     0     0 1366.00000    0   35 1435.00000 1366.00000  4.81%     -    0s
     0     0 1366.00000    0   26 1435.00000 1366.00000  4.81%     -    0s
H    0     0                    1427.0000000 1366.00000  4.27%     -    0s
H    0     0                    1416.0000000 1366.00000  3.53%     -    0s
     0     2 1366.00000    0   25 1416.00000 1366.00000  3.53%     -    0s
*   10     4               6    1406.0000000 1366.00000  2.84%  30.8    0s
H   94    46                    1394.0000000 1366.00000  2.01%   9.9    0s

Explored 644 nodes (6747 simplex iterations) in 0.41 seconds
Thread count was 1 (of 4 available processors)

Solution count 8: 1394 1406 1416 ... 1555

Optimal solution found (tolerance 1.00e-04)
Best objective 1.394000000000e+03, best bound 1.394000000000e+03, gap 0.0000%
